num_offers = 20;
num_halls = 10;
start=[3,47,75,10,3,69,67,48,14,32,29,29,14,89,27,5,30,5,19,16];
end=[37,70,98,24,83,70,99,82,73,93,88,44,70,95,80,68,78,66,39,35];
price=[2257,1448,503,669,4058,131,1624,1858,4727,2111,2759,795,2339,231,4248,1449,2053,3767,1056,1211];
requirement=[473,742,406,908,617,589,324,341,460,361,567,423,413,556,777,709,955,267,833,970];
capacity=[731,313,677,536,979,979,862,900,218,800];
